DIMENSION: 6
EDGE_WEIGHT_TYPE: EXPLICIT
EDGE_WEIGHT_FORMAT: FULL_MATRIX
EDGE_WEIGHT_SECTION:
32767 30 32767 69 32767 35 
30 32767 32 32767 32767 32767 
32767 32 32767 32767 44 32767 
69 32767 32767 32767 32767 32767 
32767 32767 44 32767 32767 32767 
35 32767 32767 32767 32767 32767 
EOF